64
150
120	3
119	2
118	2
117	2
116	1
113	1
112	1
111	2
110	2
109	2
108	1
107	1
106	1
105	1
103	2
102	2
100	1
99	1
98	4
97	2
96	3
94	1
92	1
91	2
88	1
87	1
84	1
83	3
82	1
81	2
78	1
77	2
76	1
75	1
74	2
73	2
72	1
71	1
70	1
68	1
67	1
66	2
63	1
60	3
59	1
57	1
56	2
55	2
54	2
53	2
52	1
51	2
49	1
47	3
44	1
42	1
41	2
39	2
37	1
36	1
35	1
33	1
32	1
30	2
